
Gurobi 12.0.3 (win64, gurobi_cl) logging started Fri Feb  6 00:53:48 2026

Set parameter Username
Set parameter LicenseID to value 2707088
Set parameter LogFile to value "gurobi.log"
Using license file C:\Users\felip\gurobi.lic
Academic license - for non-commercial use only - expires 2026-09-10

Gurobi 12.0.3 (win64, gurobi_cl) logging started Fri Feb  6 00:54:49 2026

Set parameter Username
Set parameter LicenseID to value 2707088
Set parameter LogFile to value "gurobi.log"
Using license file C:\Users\felip\gurobi.lic
Academic license - for non-commercial use only - expires 2026-09-10

Gurobi 12.0.3 (win64, gurobi_cl) logging started Fri Feb  6 00:56:49 2026

Set parameter Username
Set parameter LicenseID to value 2707088
Set parameter LogFile to value "gurobi.log"
Using license file C:\Users\felip\gurobi.lic
Academic license - for non-commercial use only - expires 2026-09-10

Gurobi 12.0.3 (win64, gurobi_cl) logging started Fri Feb  6 00:56:54 2026

Set parameter Username
Set parameter LicenseID to value 2707088
Set parameter LogFile to value "gurobi.log"
Using license file C:\Users\felip\gurobi.lic
Academic license - for non-commercial use only - expires 2026-09-10

Gurobi 12.0.3 (win64, gurobi_cl) logging started Fri Feb  6 00:57:33 2026

Set parameter Username
Set parameter LicenseID to value 2707088
Set parameter LogFile to value "gurobi.log"
Using license file C:\Users\felip\gurobi.lic
Academic license - for non-commercial use only - expires 2026-09-10

Gurobi 12.0.3 (win64, gurobi_cl) logging started Fri Feb  6 01:00:48 2026

Set parameter Username
Set parameter LicenseID to value 2707088
Set parameter LogFile to value "gurobi.log"
Using license file C:\Users\felip\gurobi.lic
Academic license - for non-commercial use only - expires 2026-09-10

Gurobi 12.0.3 (win64, gurobi_cl) logging started Fri Feb  6 01:04:31 2026

Set parameter Username
Set parameter LicenseID to value 2707088
Set parameter LogFile to value "gurobi.log"
Using license file C:\Users\felip\gurobi.lic
Academic license - for non-commercial use only - expires 2026-09-10

Gurobi 12.0.3 (win64, gurobi_cl) logging started Fri Feb  6 01:04:46 2026

Set parameter Username
Set parameter LicenseID to value 2707088
Set parameter LogFile to value "gurobi.log"
Using license file C:\Users\felip\gurobi.lic
Academic license - for non-commercial use only - expires 2026-09-10

Gurobi 12.0.3 (win64, gurobi_cl) logging started Fri Feb  6 01:06:44 2026

Set parameter Username
Set parameter LicenseID to value 2707088
Set parameter LogFile to value "gurobi.log"
Using license file C:\Users\felip\gurobi.lic
Academic license - for non-commercial use only - expires 2026-09-10

Gurobi 12.0.3 (win64, gurobi_cl) logging started Fri Feb  6 01:06:57 2026

Set parameter Username
Set parameter LicenseID to value 2707088
Set parameter LogFile to value "gurobi.log"
Using license file C:\Users\felip\gurobi.lic
Academic license - for non-commercial use only - expires 2026-09-10

Gurobi 12.0.3 (win64, gurobi_cl) logging started Fri Feb  6 01:07:55 2026

Set parameter Username
Set parameter LicenseID to value 2707088
Set parameter LogFile to value "gurobi.log"
Using license file C:\Users\felip\gurobi.lic
Academic license - for non-commercial use only - expires 2026-09-10

Gurobi 12.0.3 (win64, gurobi_cl) logging started Fri Feb  6 01:08:03 2026

Set parameter Username
Set parameter LicenseID to value 2707088
Set parameter LogFile to value "gurobi.log"
Using license file C:\Users\felip\gurobi.lic
Academic license - for non-commercial use only - expires 2026-09-10

Gurobi 12.0.3 (win64, gurobi_cl) logging started Fri Feb  6 01:17:51 2026

Set parameter Username
Set parameter LicenseID to value 2707088
Set parameter LogFile to value "gurobi.log"
Using license file C:\Users\felip\gurobi.lic
Academic license - for non-commercial use only - expires 2026-09-10
